29
729
2
99,60,52,91,1,52,72,16,76,40,81,32,50,15,82,59,38,41,56,93,50,12,44,5,75,43,71,67,62
53,52,81,14,22,33,64,75,3,33,48,20,38,84,41,51,40,59,46,46,98,67,6,76,85,97,45,92,33
1,2,2,1,2,1,2,2,1,2,2,2,1,2,1,2,1,1,2,2,1,2,2,2,1,1,1,1,1
